
































































































21 41 35 24 63 
0 43 49 69 
66 32 36 52 
71 3 44 64 
75 13 47 42 
70 54 62 48 28 
12 58 22 19 4 
65 51 34 18 
29 59 74 57 
61 67 10 6 
50 68 2 38 
15 45 56 46 
53 14 60 72 
25 16 40 30 
11 39 9 20 37 
55 27 17 73 
76 5 23 31 7 
26 8 1 33 
